language ESSENCE' 1.0

letting jobs = 102
letting horizon = 813
letting resourcesRenew = 2
letting resourcesNonrenew = 2
letting resourceLimits = [31, 29, 441, 457]
letting successors = [[2, 3, 4, 5, 6, 7, 10, 11, 13, 14], [23, 22, 20, 18, 17, 16, 12], [26, 25, 24, 9, 8], [25, 24, 22, 8], [25, 24, 23, 20, 18, 17], [25, 8], [27, 26, 25, 24, 23, 21, 20], [21, 20, 19, 18], [35, 27, 22, 21, 20], [21, 20, 19], [35, 25, 21, 20], [35, 25, 15], [29, 28, 18], [35, 33, 29, 27, 25], [33, 29, 27, 21], [31, 30, 28, 26], [35, 29, 21], [51, 35, 33, 32, 30, 27], [51, 27, 23], [43, 39, 36, 33, 29, 28], [51, 46, 43, 38, 36, 32, 31, 30], [51, 49, 46, 38, 37, 36, 31, 30], [49, 46, 43, 36, 32, 31, 30], [51, 50, 49, 46, 43, 36, 31, 30], [51, 49, 47, 46, 45, 43, 42, 41, 40, 39, 34, 32], [49, 43, 42, 40, 38, 36, 35, 34, 32], [49, 43, 42, 38, 37, 36, 34, 31], [51, 49, 47, 46, 38, 32], [51, 49, 47, 42, 40, 37, 34], [42, 40, 34], [59, 56, 54, 45, 44, 41, 39], [56, 54, 48, 37], [58, 56, 50, 48, 42], [59, 58, 56, 54, 53, 52, 48, 44], [59, 56, 52, 48, 45, 44], [59, 56, 47, 44, 41], [58, 57, 53, 52, 50, 44], [48, 45, 41], [63, 62, 60, 58, 57, 53, 52], [66, 61, 59, 58, 57, 56, 55, 53], [62, 60, 57, 55, 53, 52], [62, 60, 57, 54, 53, 52], [60, 53, 48], [72, 69, 63, 62, 61, 60, 55], [63, 62, 61, 58, 57, 53], [69, 60, 58, 57, 55], [62, 61, 55, 54], [72, 69, 67, 66, 63, 62, 61, 57], [72, 69, 63, 62, 61, 55], [66, 63, 62, 59, 55], [79, 78, 75, 72, 71, 69, 68, 67, 66, 65, 61], [79, 73, 71, 69, 67, 66, 65, 64, 61], [88, 79, 78, 74, 73, 72, 71, 70, 67, 65, 64], [79, 74, 73, 72, 70, 69, 66, 65, 64], [88, 78, 74, 73, 71, 70, 67, 65, 64], [80, 75, 73, 72, 71, 70, 67, 62], [88, 78, 74, 71, 70, 65, 64], [88, 87, 85, 79, 78, 74, 72, 70, 64], [88, 87, 78, 73, 72, 70, 65], [84, 83, 79, 78, 71, 67, 66], [90, 88, 87, 86, 85, 83, 81, 80, 77, 74, 70], [88, 87, 86, 85, 81, 79, 74, 68], [101, 79, 76, 75, 65], [101, 84, 80, 76, 75, 68], [98, 90, 85, 84, 83, 81, 77], [99, 90, 85, 82, 81, 80, 76], [101, 90, 82, 77, 76], [98, 96, 90, 83, 82, 77], [100, 98, 97, 95, 92, 90, 89, 88, 87, 84], [100, 99, 84, 82, 76], [99, 98, 95, 93, 90, 87, 82], [100, 90, 83, 76], [99, 98, 95, 93, 86, 83, 82], [101, 99, 98, 95, 92, 89, 84], [99, 96, 95, 93, 86, 82], [98, 97, 96, 95, 93, 92, 89], [100, 99, 97, 95, 93, 92, 89], [101, 98, 97, 96, 95, 92, 89], [98, 96, 95, 93, 92, 91], [97, 95, 93, 92, 91], [100, 95, 93, 89], [97, 92, 89], [97, 92], [96, 93], [92, 91], [92, 91], [96, 94], [96, 94], [91], [91], [94], [94], [94], [102], [102], [102], [102], [102], [102], [102], [102], []]
letting durations = [[0], [4, 5, 9], [3, 5, 6], [5, 6, 7], [1, 2, 3], [1, 2, 4], [3, 6, 7], [3, 4, 8], [4, 5, 6], [3, 7, 10], [1, 5, 6], [1, 7, 8], [6, 7, 8], [3, 6, 10], [4, 6, 9], [1, 5, 9], [1, 2, 6], [1, 2, 3], [1, 3, 8], [4, 6, 8], [2, 7, 10], [8, 9, 10], [2, 3, 7], [3, 4, 10], [1, 8, 10], [1, 7, 10], [1, 2, 9], [2, 5, 7], [3, 8, 10], [2, 8, 9], [1, 5, 7], [3, 6, 10], [5, 7, 10], [3, 6, 7], [2, 3, 8], [1, 2, 10], [2, 5, 10], [4, 5, 10], [6, 7, 10], [1, 9, 10], [1, 7, 8], [2, 4, 8], [2, 3, 5], [4, 5, 6], [1, 5, 8], [3, 7, 10], [2, 4, 7], [3, 6, 10], [2, 3, 9], [2, 9, 10], [3, 5, 7], [2, 5, 10], [1, 7, 8], [3, 4, 7], [4, 7, 8], [5, 8, 10], [1, 5, 8], [2, 6, 7], [1, 2, 3], [4, 5, 10], [4, 7, 8], [3, 7, 9], [6, 7, 8], [2, 7, 10], [3, 4, 9], [2, 9, 10], [2, 4, 6], [1, 3, 10], [2, 6, 9], [6, 7, 10], [1, 4, 7], [5, 9, 10], [5, 6, 7], [5, 8, 10], [2, 8, 9], [1, 2, 10], [2, 3, 5], [1, 2, 9], [2, 3, 4], [3, 6, 9], [2, 4, 5], [5, 8, 9], [1, 2, 3], [4, 9, 10], [2, 8, 10], [3, 6, 8], [1, 6, 8], [4, 5, 7], [4, 7, 10], [5, 7, 9], [3, 8, 9], [6, 9, 10], [1, 5, 6], [2, 4, 9], [4, 8, 9], [1, 5, 6], [2, 5, 6], [1, 3, 4], [8, 9, 10], [5, 6, 9], [1, 5, 9], [0]]
letting resourceUsage = [[[0, 0, 0, 0]], [[3, 3, 6, 8], [3, 2, 6, 6], [3, 2, 6, 5]], [[4, 4, 5, 7], [2, 4, 5, 6], [2, 4, 5, 3]], [[4, 4, 6, 10], [3, 2, 5, 7], [3, 2, 4, 4]], [[4, 3, 9, 10], [3, 2, 9, 8], [2, 2, 8, 7]], [[1, 4, 7, 10], [1, 2, 5, 8], [1, 1, 3, 6]], [[4, 2, 8, 6], [4, 2, 5, 6], [4, 2, 4, 3]], [[1, 4, 6, 9], [1, 4, 4, 4], [1, 3, 3, 3]], [[3, 2, 3, 2], [3, 2, 3, 1], [1, 2, 2, 1]], [[4, 5, 4, 4], [3, 4, 4, 2], [2, 2, 4, 1]], [[3, 3, 9, 7], [2, 2, 7, 5], [2, 2, 4, 3]], [[4, 2, 6, 3], [2, 2, 5, 2], [2, 2, 5, 1]], [[2, 4, 8, 9], [1, 3, 8, 6], [1, 3, 8, 5]], [[4, 5, 8, 4], [3, 3, 5, 4], [3, 3, 1, 4]], [[4, 1, 6, 6], [4, 1, 6, 4], [3, 1, 6, 2]], [[5, 5, 8, 8], [4, 3, 4, 6], [4, 3, 3, 6]], [[3, 3, 4, 3], [2, 3, 3, 2], [1, 3, 3, 1]], [[2, 3, 6, 5], [2, 2, 5, 5], [2, 2, 5, 4]], [[4, 3, 3, 5], [3, 2, 2, 5], [3, 1, 2, 4]], [[3, 4, 8, 6], [2, 3, 5, 6], [2, 2, 1, 6]], [[3, 4, 7, 8], [2, 4, 5, 7], [2, 3, 2, 7]], [[3, 4, 9, 9], [2, 4, 9, 5], [1, 4, 9, 4]], [[4, 4, 9, 5], [3, 3, 7, 5], [2, 2, 6, 4]], [[4, 2, 3, 7], [4, 2, 3, 4], [3, 2, 3, 3]], [[4, 2, 5, 4], [2, 2, 5, 4], [2, 2, 5, 3]], [[3, 5, 4, 10], [2, 4, 2, 9], [2, 3, 2, 8]], [[4, 5, 4, 10], [3, 4, 4, 7], [3, 4, 3, 6]], [[4, 4, 8, 4], [3, 3, 7, 4], [1, 2, 7, 4]], [[4, 2, 8, 8], [3, 2, 7, 4], [3, 2, 5, 4]], [[4, 3, 8, 8], [3, 2, 6, 8], [3, 1, 4, 8]], [[4, 2, 4, 4], [2, 1, 4, 4], [2, 1, 3, 4]], [[4, 1, 3, 3], [4, 1, 3, 2], [2, 1, 3, 3]], [[3, 4, 5, 7], [2, 3, 4, 5], [2, 3, 3, 3]], [[5, 4, 8, 6], [4, 4, 7, 5], [4, 4, 7, 4]], [[1, 4, 5, 8], [1, 2, 2, 8], [1, 1, 1, 8]], [[2, 3, 7, 7], [2, 3, 6, 7], [2, 3, 3, 4]], [[2, 5, 7, 3], [2, 4, 7, 3], [2, 4, 3, 3]], [[4, 3, 8, 9], [4, 2, 8, 4], [4, 1, 8, 4]], [[3, 3, 10, 9], [2, 3, 8, 6], [1, 3, 4, 6]], [[4, 1, 4, 6], [4, 1, 3, 3], [3, 1, 3, 1]], [[4, 5, 5, 8], [3, 3, 4, 7], [3, 2, 1, 7]], [[4, 2, 7, 4], [3, 2, 7, 3], [2, 2, 7, 2]], [[4, 2, 5, 10], [4, 2, 5, 7], [4, 1, 5, 5]], [[3, 3, 5, 6], [3, 3, 4, 6], [2, 2, 4, 5]], [[5, 2, 7, 10], [3, 1, 7, 9], [2, 1, 5, 8]], [[3, 3, 8, 5], [3, 3, 5, 5], [3, 3, 3, 4]], [[4, 4, 10, 4], [4, 4, 7, 4], [4, 4, 3, 3]], [[2, 3, 2, 1], [2, 2, 2, 2], [2, 2, 2, 1]], [[5, 1, 3, 2], [5, 1, 3, 1], [5, 1, 2, 1]], [[3, 4, 5, 4], [3, 4, 3, 4], [3, 4, 1, 4]], [[5, 1, 8, 6], [5, 1, 8, 5], [5, 1, 8, 4]], [[3, 4, 7, 2], [1, 4, 6, 1], [1, 3, 5, 1]], [[3, 4, 8, 1], [3, 3, 8, 1], [3, 1, 7, 1]], [[4, 1, 8, 4], [4, 1, 5, 3], [3, 1, 2, 2]], [[4, 5, 7, 6], [4, 5, 6, 5], [3, 5, 5, 5]], [[3, 5, 7, 9], [3, 4, 7, 8], [3, 4, 7, 7]], [[2, 4, 6, 6], [2, 2, 5, 6], [2, 2, 5, 5]], [[5, 1, 8, 8], [3, 1, 4, 7], [1, 1, 4, 6]], [[1, 5, 3, 7], [1, 3, 3, 7], [1, 3, 2, 7]], [[1, 2, 3, 9], [1, 1, 2, 9], [1, 1, 2, 8]], [[1, 5, 10, 5], [1, 3, 9, 5], [1, 2, 9, 4]], [[5, 2, 8, 6], [3, 2, 6, 3], [3, 2, 4, 2]], [[3, 1, 7, 5], [2, 1, 6, 2], [1, 1, 5, 2]], [[5, 4, 6, 6], [5, 4, 5, 4], [5, 4, 2, 3]], [[1, 5, 4, 7], [1, 5, 4, 4], [1, 5, 4, 1]], [[5, 3, 3, 6], [2, 1, 3, 5], [1, 1, 3, 3]], [[3, 3, 3, 6], [2, 2, 3, 4], [2, 2, 2, 3]], [[4, 3, 4, 5], [4, 3, 4, 2], [3, 3, 4, 1]], [[4, 3, 3, 9], [4, 3, 3, 6], [4, 2, 3, 4]], [[4, 3, 2, 4], [4, 1, 1, 3], [3, 1, 1, 3]], [[4, 4, 5, 3], [3, 2, 5, 3], [1, 1, 3, 1]], [[3, 3, 4, 7], [3, 2, 2, 4], [3, 2, 1, 2]], [[1, 3, 8, 5], [1, 3, 3, 4], [1, 2, 1, 2]], [[4, 4, 6, 10], [3, 4, 3, 7], [3, 3, 1, 4]], [[4, 5, 7, 10], [3, 4, 6, 9], [3, 3, 4, 8]], [[4, 5, 7, 5], [4, 5, 7, 3], [4, 5, 7, 2]], [[5, 3, 6, 2], [4, 3, 5, 2], [4, 3, 3, 2]], [[4, 4, 7, 10], [3, 4, 5, 10], [3, 2, 5, 10]], [[4, 1, 8, 5], [3, 1, 8, 5], [3, 1, 8, 4]], [[1, 5, 5, 7], [1, 4, 4, 5], [1, 3, 3, 3]], [[3, 2, 6, 8], [3, 1, 6, 8], [3, 1, 5, 8]], [[2, 4, 2, 2], [1, 3, 1, 1], [1, 2, 1, 1]], [[5, 4, 7, 10], [2, 3, 5, 4], [1, 1, 4, 4]], [[1, 1, 3, 7], [1, 1, 3, 5], [1, 1, 3, 2]], [[3, 5, 4, 5], [3, 3, 2, 5], [1, 3, 2, 5]], [[4, 4, 10, 4], [3, 3, 6, 4], [3, 3, 5, 3]], [[5, 1, 8, 6], [4, 1, 7, 5], [4, 1, 7, 4]], [[4, 4, 7, 10], [4, 4, 6, 7], [3, 3, 5, 3]], [[5, 4, 7, 4], [4, 3, 6, 4], [4, 3, 5, 4]], [[2, 2, 1, 8], [2, 2, 1, 6], [2, 2, 1, 3]], [[3, 4, 6, 8], [2, 3, 2, 6], [1, 3, 1, 4]], [[4, 2, 5, 7], [3, 2, 3, 7], [3, 2, 1, 6]], [[3, 4, 5, 4], [3, 4, 4, 4], [3, 3, 4, 4]], [[3, 2, 6, 7], [2, 2, 5, 6], [2, 2, 2, 6]], [[5, 3, 8, 7], [2, 1, 5, 5], [1, 1, 3, 4]], [[5, 1, 10, 3], [4, 1, 8, 3], [4, 1, 8, 2]], [[2, 2, 3, 6], [2, 1, 2, 5], [2, 1, 2, 4]], [[3, 3, 4, 6], [2, 3, 4, 6], [1, 1, 4, 5]], [[4, 2, 2, 10], [4, 2, 1, 5], [3, 1, 1, 4]], [[1, 2, 8, 6], [1, 2, 7, 5], [1, 2, 7, 4]], [[4, 2, 5, 7], [4, 2, 5, 6], [4, 2, 4, 5]], [[0, 0, 0, 0]]]
